\Problem name: IloCplex

Minimize
 obj: id145 + id385
Subject To
 id150: id1 + id65 + id17 + id81 + id129 - id33 - id97 - id49 - id113  = 0
 id153: id2 + id66 + id18 + id82 + id130 - id34 - id98 - id50 - id114  = 0
 id156: id3 + id67 + id19 + id83 + id131 - id35 - id99 - id51 - id115  = 0
 id159: id4 + id68 + id20 + id84 + id132 - id36 - id100 - id52 - id116  = 0
 id162: id5 + id69 + id21 + id85 + id133 - id37 - id101 - id53 - id117  = 0
 id165: id6 + id70 + id22 + id86 + id134 - id38 - id102 - id54 - id118  = 0
 id168: id7 + id71 + id23 + id87 + id135 - id39 - id103 - id55 - id119  = 0
 id171: id8 + id72 + id24 + id88 + id136 - id40 - id104 - id56 - id120  = 0
 id174: id9 + id73 + id25 + id89 + id137 - id41 - id105 - id57 - id121  = 0
 id177: id10 + id74 + id26 + id90 + id138 - id42 - id106 - id58 - id122  = 0
 id180: id11 + id75 + id27 + id91 + id139 - id43 - id107 - id59 - id123  = 0
 id183: id12 + id76 + id28 + id92 + id140 - id44 - id108 - id60 - id124  = 0
 id186: id13 + id77 + id29 + id93 + id141 - id45 - id109 - id61 - id125  = 0
 id189: id14 + id78 + id30 + id94 + id142 - id46 - id110 - id62 - id126  = 0
 id192: id15 + id79 + id31 + id95 + id143 - id47 - id111 - id63 - id127  = 0
 id195: id16 + id80 + id32 + id96 + id144 - id48 - id112 - id64 - id128  = 0
 id198: - id1 - id65 + id33 + id97 - id2 - id66 + id34 + id98 - id3 - id67
        + id35 + id99 - id4 - id68 + id36 + id100  = 0
 id201: id37 + id101 + id38 + id102 + id39 + id103 + id40 + id104  = 6
 id202: id5 + id69 + id6 + id70 + id7 + id71 + id8 + id72  = 0
 id205: - id9 - id73 + id41 + id105 - id10 - id74 + id42 + id106 - id11 - id75
        + id43 + id107 - id12 - id76 + id44 + id108  = 0
 id208: - id13 - id77 + id45 + id109 - id14 - id78 + id46 + id110 - id15 - id79
        + id47 + id111 - id16 - id80 + id48 + id112  = 0
 id211: - id17 - id81 + id49 + id113 - id21 - id85 + id53 + id117 - id25 - id89
        + id57 + id121 - id29 - id93 + id61 + id125  = 0
 id214: - id18 - id82 + id50 + id114 - id22 - id86 + id54 + id118 - id26 - id90
        + id58 + id122 - id30 - id94 + id62 + id126  = 0
 id217: - id19 - id83 + id51 + id115 - id23 - id87 + id55 + id119 - id27 - id91
        + id59 + id123 - id31 - id95 + id63 + id127  = 0
 id220: - id20 - id84 + id52 + id116 - id24 - id88 + id56 + id120 - id28 - id92
        + id60 + id124 - id32 - id96 + id64 + id128  = 0
 id222: id129 + id130 + id131 + id132 + id133 + id134 + id135 + id136 + id137
        + id138 + id139 + id140 + id141 + id142 + id143 + id144  = 6
 id223: id1 <= 4
 id225: id2 <= 6.66666666666667
 id227: id3 <= 6.66666666666667
 id229: id4 <= 0.666666666666667
 id231: id5 <= 6.66666666666667
 id233: id6 <= 3.33333333333333
 id235: id7 <= 6.66666666666667
 id237: id8 <= 6.66666666666667
 id239: id9 <= 6.66666666666667
 id241: id10 <= 6.66666666666667
 id243: id11 <= 6.66666666666667
 id245: id12 <= 1.33333333333333
 id247: id13 <= 6.66666666666667
 id249: id14 <= 5.33333333333333
 id251: id15 <= 6.66666666666667
 id253: id16 <= 3.33333333333333
 id255: id17 <= 2
 id257: id18 <= 2.66666666666667
 id259: id19 <= 6
 id261: id20 <= 6.66666666666667
 id263: id21 <= 6.66666666666667
 id265: id22 <= 6.66666666666667
 id267: id23 <= 2.66666666666667
 id269: id24 <= 6.66666666666667
 id271: id25 <= 6.66666666666667
 id273: id26 <= 6.66666666666667
 id275: id27 <= 6.66666666666667
 id277: id28 <= 3.33333333333333
 id279: id29 <= 6.66666666666667
 id281: id30 <= 6.66666666666667
 id283: id31 <= 6.66666666666667
 id285: id32 <= 2
 id287: id33 <= 4
 id289: id34 <= 6.66666666666667
 id291: id35 <= 6.66666666666667
 id293: id36 <= 0.666666666666667
 id295: id37 <= 6.66666666666667
 id297: id38 <= 3.33333333333333
 id299: id39 <= 6.66666666666667
 id301: id40 <= 6.66666666666667
 id303: id41 <= 6.66666666666667
 id305: id42 <= 6.66666666666667
 id307: id43 <= 6.66666666666667
 id309: id44 <= 1.33333333333333
 id311: id45 <= 6.66666666666667
 id313: id46 <= 5.33333333333333
 id315: id47 <= 6.66666666666667
 id317: id48 <= 3.33333333333333
 id319: id49 <= 2
 id321: id50 <= 2.66666666666667
 id323: id51 <= 6
 id325: id52 <= 6.66666666666667
 id327: id53 <= 6.66666666666667
 id329: id54 <= 6.66666666666667
 id331: id55 <= 2.66666666666667
 id333: id56 <= 6.66666666666667
 id335: id57 <= 6.66666666666667
 id337: id58 <= 6.66666666666667
 id339: id59 <= 6.66666666666667
 id341: id60 <= 3.33333333333333
 id343: id61 <= 6.66666666666667
 id345: id62 <= 6.66666666666667
 id347: id63 <= 6.66666666666667
 id349: id64 <= 2
 id351: id129 <= 4
 id353: id130 <= 4
 id355: id131 <= 4
 id357: id132 <= 1
 id359: id133 <= 4
 id361: id134 <= 0
 id363: id135 <= 4
 id365: id136 <= 4
 id367: id137 <= 4
 id369: id138 <= 4
 id371: id139 <= 4
 id373: id140 <= 4
 id375: id141 <= 4
 id377: id142 <= 4
 id379: id143 <= 4
 id381: id144 <= 4
 id384: - id145 + id1 + 15 id65 + id17 + 15 id81 + id129 + id33 + 15 id97
        + id49 + 15 id113 + id2 + 15 id66 + id18 + 15 id82 + id130 + id34
        + 15 id98 + id50 + 15 id114 + id3 + 15 id67 + id19 + 15 id83 + id131
        + id35 + 15 id99 + id51 + 15 id115 + id4 + 15 id68 + id20 + 15 id84
        + id132 + id36 + 15 id100 + id52 + 15 id116 + id5 + 15 id69 + id21
        + 15 id85 + id133 + id37 + 15 id101 + id53 + 15 id117 + id6 + 15 id70
        + id22 + 15 id86 + id134 + id38 + 15 id102 + id54 + 15 id118 + id7
        + 15 id71 + id23 + 15 id87 + id135 + id39 + 15 id103 + id55 + 15 id119
        + id8 + 15 id72 + id24 + 15 id88 + id136 + id40 + 15 id104 + id56
        + 15 id120 + id9 + 15 id73 + id25 + 15 id89 + id137 + id41 + 15 id105
        + id57 + 15 id121 + id10 + 15 id74 + id26 + 15 id90 + id138 + id42
        + 15 id106 + id58 + 15 id122 + id11 + 15 id75 + id27 + 15 id91 + id139
        + id43 + 15 id107 + id59 + 15 id123 + id12 + 15 id76 + id28 + 15 id92
        + id140 + id44 + 15 id108 + id60 + 15 id124 + id13 + 15 id77 + id29
        + 15 id93 + id141 + id45 + 15 id109 + id61 + 15 id125 + id14 + 15 id78
        + id30 + 15 id94 + id142 + id46 + 15 id110 + id62 + 15 id126 + id15
        + 15 id79 + id31 + 15 id95 + id143 + id47 + 15 id111 + id63 + 15 id127
        + id16 + 15 id80 + id32 + 15 id96 + id144 + id48 + 15 id112 + id64
        + 15 id128  = 0
Bounds
      id385 = 0
 0 <= id1 <= 6
 0 <= id65 <= 6
 0 <= id17 <= 6
 0 <= id81 <= 6
 0 <= id129 <= 6
 0 <= id33 <= 6
 0 <= id97 <= 6
 0 <= id49 <= 6
 0 <= id113 <= 6
 0 <= id2 <= 6
 0 <= id66 <= 6
 0 <= id18 <= 6
 0 <= id82 <= 6
 0 <= id130 <= 6
 0 <= id34 <= 6
 0 <= id98 <= 6
 0 <= id50 <= 6
 0 <= id114 <= 6
 0 <= id3 <= 6
 0 <= id67 <= 6
 0 <= id19 <= 6
 0 <= id83 <= 6
 0 <= id131 <= 6
 0 <= id35 <= 6
 0 <= id99 <= 6
 0 <= id51 <= 6
 0 <= id115 <= 6
 0 <= id4 <= 6
 0 <= id68 <= 6
 0 <= id20 <= 6
 0 <= id84 <= 6
 0 <= id132 <= 6
 0 <= id36 <= 6
 0 <= id100 <= 6
 0 <= id52 <= 6
 0 <= id116 <= 6
 0 <= id5 <= 6
 0 <= id69 <= 6
 0 <= id21 <= 6
 0 <= id85 <= 6
 0 <= id133 <= 6
 0 <= id37 <= 6
 0 <= id101 <= 6
 0 <= id53 <= 6
 0 <= id117 <= 6
 0 <= id6 <= 6
 0 <= id70 <= 6
 0 <= id22 <= 6
 0 <= id86 <= 6
 0 <= id134 <= 6
 0 <= id38 <= 6
 0 <= id102 <= 6
 0 <= id54 <= 6
 0 <= id118 <= 6
 0 <= id7 <= 6
 0 <= id71 <= 6
 0 <= id23 <= 6
 0 <= id87 <= 6
 0 <= id135 <= 6
 0 <= id39 <= 6
 0 <= id103 <= 6
 0 <= id55 <= 6
 0 <= id119 <= 6
 0 <= id8 <= 6
 0 <= id72 <= 6
 0 <= id24 <= 6
 0 <= id88 <= 6
 0 <= id136 <= 6
 0 <= id40 <= 6
 0 <= id104 <= 6
 0 <= id56 <= 6
 0 <= id120 <= 6
 0 <= id9 <= 6
 0 <= id73 <= 6
 0 <= id25 <= 6
 0 <= id89 <= 6
 0 <= id137 <= 6
 0 <= id41 <= 6
 0 <= id105 <= 6
 0 <= id57 <= 6
 0 <= id121 <= 6
 0 <= id10 <= 6
 0 <= id74 <= 6
 0 <= id26 <= 6
 0 <= id90 <= 6
 0 <= id138 <= 6
 0 <= id42 <= 6
 0 <= id106 <= 6
 0 <= id58 <= 6
 0 <= id122 <= 6
 0 <= id11 <= 6
 0 <= id75 <= 6
 0 <= id27 <= 6
 0 <= id91 <= 6
 0 <= id139 <= 6
 0 <= id43 <= 6
 0 <= id107 <= 6
 0 <= id59 <= 6
 0 <= id123 <= 6
 0 <= id12 <= 6
 0 <= id76 <= 6
 0 <= id28 <= 6
 0 <= id92 <= 6
 0 <= id140 <= 6
 0 <= id44 <= 6
 0 <= id108 <= 6
 0 <= id60 <= 6
 0 <= id124 <= 6
 0 <= id13 <= 6
 0 <= id77 <= 6
 0 <= id29 <= 6
 0 <= id93 <= 6
 0 <= id141 <= 6
 0 <= id45 <= 6
 0 <= id109 <= 6
 0 <= id61 <= 6
 0 <= id125 <= 6
 0 <= id14 <= 6
 0 <= id78 <= 6
 0 <= id30 <= 6
 0 <= id94 <= 6
 0 <= id142 <= 6
 0 <= id46 <= 6
 0 <= id110 <= 6
 0 <= id62 <= 6
 0 <= id126 <= 6
 0 <= id15 <= 6
 0 <= id79 <= 6
 0 <= id31 <= 6
 0 <= id95 <= 6
 0 <= id143 <= 6
 0 <= id47 <= 6
 0 <= id111 <= 6
 0 <= id63 <= 6
 0 <= id127 <= 6
 0 <= id16 <= 6
 0 <= id80 <= 6
 0 <= id32 <= 6
 0 <= id96 <= 6
 0 <= id144 <= 6
 0 <= id48 <= 6
 0 <= id112 <= 6
 0 <= id64 <= 6
 0 <= id128 <= 6
Generals
 id1  id65  id17  id81  id129  id33  id97  id49  id113  id2  id66  id18  id82 
 id130  id34  id98  id50  id114  id3  id67  id19  id83  id131  id35  id99 
 id51  id115  id4  id68  id20  id84  id132  id36  id100  id52  id116  id5 
 id69  id21  id85  id133  id37  id101  id53  id117  id6  id70  id22  id86 
 id134  id38  id102  id54  id118  id7  id71  id23  id87  id135  id39  id103 
 id55  id119  id8  id72  id24  id88  id136  id40  id104  id56  id120  id9 
 id73  id25  id89  id137  id41  id105  id57  id121  id10  id74  id26  id90 
 id138  id42  id106  id58  id122  id11  id75  id27  id91  id139  id43  id107 
 id59  id123  id12  id76  id28  id92  id140  id44  id108  id60  id124  id13 
 id77  id29  id93  id141  id45  id109  id61  id125  id14  id78  id30  id94 
 id142  id46  id110  id62  id126  id15  id79  id31  id95  id143  id47  id111 
 id63  id127  id16  id80  id32  id96  id144  id48  id112  id64  id128 
End
